4 
5  54 
6  09 24 43 50 58 
7  05 13 20 28 35 43 50 58 
8  05 13 20 28 35 43 50 58 
9  05 13 20 35 50 
10  05 20 35 50 
11  05 20 35 50 
12  05 20 35 50 
13  06 21 36 51 
14  06 21 36 51 
15  06 13 21 29 36 44 51 59 
16  06 14 21 29 36 44 51 59 
17  06 14 21 29 36 44 51 59 
18  06 14 21 29 36 43 51 
19  06 20 35 50 
20  05 20 35 50 
21  02 17 32 47 
22  02 17 32 45 
23  00 16 31 
0 
